12° run output:
{
    "Function": "kroB1000.tsp",
    "Problem dimension": [
        362,
        880,
        934,
        848,
        774,
        705,
        56,
        500,
        87,
        277,
        23,
        1,
        770,
        156,
        126,
        690,
        985,
        841,
        679,
        102,
        201,
        436,
        518,
        434,
        803,
        725,
        867,
        388,
        546,
        481,
        400,
        484,
        48,
        196,
        598,
        153,
        422,
        830,
        375,
        597,
        734,
        224,
        303,
        870,
        547,
        699,
        464,
        473,
        728,
        367,
        600,
        73,
        631,
        295,
        862,
        230,
        244,
        843,
        470,
        74,
        780,
        945,
        742,
        574,
        483,
        672,
        314,
        689,
        491,
        535,
        695,
        36,
        389,
        634,
        538,
        318,
        415,
        59,
        327,
        45,
        178,
        343,
        206,
        248,
        904,
        772,
        72,
        106,
        664,
        879,
        855,
        281,
        589,
        775,
        875,
        640,
        577,
        638,
        758,
        21,
        931,
        919,
        183,
        704,
        441,
        270,
        644,
        276,
        667,
        268,
        797,
        354,
        914,
        322,
        488,
        279,
        953,
        77,
        764,
        228,
        529,
        928,
        342,
        519,
        677,
        391,
        2,
        150,
        129,
        874,
        374,
        944,
        147,
        30,
        109,
        951,
        229,
        284,
        485,
        961,
        842,
        779,
        845,
        407,
        794,
        900,
        884,
        626,
        71,
        253,
        515,
        112,
        514,
        933,
        482,
        594,
        590,
        557,
        756,
        839,
        568,
        824,
        716,
        635,
        988,
        419,
        528,
        215,
        853,
        509,
        536,
        980,
        384,
        729,
        750,
        993,
        506,
        974,
        601,
        736,
        108,
        492,
        70,
        503,
        494,
        901,
        891,
        325,
        151,
        190,
        627,
        408,
        468,
        941,
        801,
        404,
        16,
        767,
        480,
        864,
        222,
        825,
        799,
        698,
        288,
        336,
        888,
        595,
        451,
        584,
        662,
        531,
        911,
        708,
        55,
        501,
        439,
        727,
        254,
        958,
        782,
        371,
        19,
        942,
        259,
        495,
        732,
        671,
        937,
        703,
        651,
        138,
        69,
        193,
        267,
        807,
        305,
        852,
        532,
        811,
        43,
        370,
        752,
        721,
        302,
        642,
        866,
        997,
        157,
        110,
        271,
        210,
        520,
        748,
        970,
        785,
        649,
        26,
        682,
        149,
        124,
        420,
        393,
        990,
        275,
        298,
        337,
        431,
        788,
        471,
        893,
        619,
        847,
        936,
        946,
        745,
        189,
        840,
        332,
        88,
        992,
        373,
        647,
        733,
        307,
        123,
        114,
        453,
        868,
        641,
        41,
        152,
        159,
        476,
        180,
        777,
        908,
        392,
        625,
        620,
        324,
        120,
        674,
        753,
        100,
        718,
        892,
        13,
        769,
        857,
        735,
        269,
        243,
        410,
        956,
        280,
        382,
        18,
        66,
        344,
        213,
        645,
        306,
        164,
        223,
        991,
        385,
        418,
        710,
        877,
        316,
        299,
        401,
        265,
        264,
        984,
        304,
        82,
        457,
        555,
        115,
        924,
        678,
        511,
        578,
        854,
        427,
        837,
        798,
        810,
        246,
        421,
        219,
        452,
        646,
        76,
        496,
        200,
        550,
        831,
        618,
        38,
        809,
        943,
        170,
        214,
        524,
        143,
        137,
        278,
        176,
        730,
        226,
        172,
        559,
        527,
        297,
        46,
        498,
        818,
        379,
        896,
        94,
        251,
        90,
        558,
        795,
        192,
        526,
        967,
        508,
        930,
        711,
        591,
        720,
        160,
        442,
        27,
        449,
        144,
        688,
        438,
        315,
        194,
        882,
        694,
        240,
        656,
        516,
        675,
        5,
        395,
        971,
        653,
        706,
        925,
        918,
        954,
        972,
        166,
        231,
        323,
        162,
        746,
        829,
        386,
        975,
        381,
        776,
        28,
        368,
        61,
        175,
        757,
        759,
        443,
        380,
        897,
        741,
        186,
        83,
        116,
        334,
        966,
        643,
        103,
        586,
        346,
        876,
        628,
        673,
        412,
        225,
        567,
        648,
        113,
        105,
        154,
        692,
        834,
        62,
        563,
        827,
        786,
        68,
        851,
        286,
        957,
        238,
        42,
        185,
        533,
        139,
        561,
        319,
        218,
        402,
        773,
        581,
        84,
        787,
        812,
        723,
        724,
        9,
        363,
        996,
        461,
        65,
        869,
        377,
        490,
        22,
        629,
        493,
        655,
        768,
        311,
        489,
        182,
        838,
        534,
        220,
        861,
        12,
        450,
        844,
        340,
        659,
        763,
        326,
        203,
        130,
        466,
        754,
        148,
        433,
        8,
        424,
        778,
        513,
        234,
        202,
        666,
        623,
        545,
        50,
        878,
        743,
        458,
        828,
        37,
        551,
        613,
        261,
        633,
        168,
        717,
        950,
        47,
        510,
        132,
        81,
        947,
        127,
        287,
        863,
        858,
        274,
        291,
        607,
        447,
        700,
        378,
        121,
        131,
        873,
        171,
        981,
        136,
        588,
        399,
        658,
        835,
        542,
        40,
        437,
        609,
        596,
        350,
        571,
        691,
        63,
        398,
        217,
        117,
        949,
        216,
        455,
        817,
        784,
        308,
        549,
        614,
        335,
        474,
        86,
        959,
        472,
        98,
        570,
        241,
        952,
        425,
        731,
        697,
        935,
        833,
        796,
        245,
        52,
        751,
        982,
        195,
        355,
        89,
        738,
        345,
        208,
        907,
        883,
        554,
        173,
        639,
        104,
        889,
        960,
        681,
        414,
        239,
        403,
        713,
        781,
        330,
        905,
        376,
        802,
        429,
        702,
        665,
        475,
        709,
        347,
        328,
        477,
        522,
        530,
        556,
        668,
        364,
        969,
        25,
        250,
        233,
        740,
        20,
        712,
        301,
        181,
        912,
        505,
        686,
        881,
        611,
        221,
        832,
        39,
        849,
        260,
        448,
        29,
        33,
        423,
        979,
        630,
        610,
        978,
        582,
        921,
        184,
        940,
        282,
        141,
        560,
        964,
        235,
        915,
        537,
        353,
        209,
        169,
        329,
        107,
        604,
        486,
        310,
        885,
        657,
        820,
        285,
        616,
        191,
        197,
        715,
        257,
        397,
        406,
        800,
        572,
        79,
        24,
        440,
        289,
        258,
        871,
        300,
        167,
        91,
        293,
        502,
        454,
        739,
        846,
        85,
        417,
        333,
        726,
        252,
        791,
        459,
        249,
        263,
        64,
        821,
        783,
        617,
        273,
        676,
        507,
        637,
        719,
        140,
        579,
        75,
        913,
        53,
        372,
        478,
        15,
        96,
        31,
        923,
        660,
        521,
        255,
        188,
        685,
        11,
        3,
        119,
        608,
        179,
        955,
        939,
        390,
        67,
        348,
        44,
        313,
        553,
        262,
        701,
        133,
        652,
        266,
        444,
        205,
        983,
        487,
        687,
        926,
        927,
        684,
        247,
        976,
        541,
        836,
        4,
        57,
        603,
        865,
        737,
        361,
        396,
        814,
        462,
        580,
        14,
        654,
        747,
        544,
        321,
        909,
        125,
        383,
        413,
        78,
        808,
        320,
        670,
        999,
        294,
        707,
        823,
        358,
        895,
        237,
        622,
        910,
        593,
        409,
        6,
        92,
        886,
        973,
        583,
        826,
        816,
        97,
        135,
        146,
        903,
        815,
        339,
        755,
        445,
        227,
        357,
        932,
        963,
        569,
        929,
        405,
        430,
        463,
        366,
        680,
        805,
        331,
        760,
        602,
        232,
        962,
        499,
        977,
        994,
        968,
        859,
        242,
        158,
        49,
        101,
        272,
        60,
        650,
        207,
        920,
        576,
        17,
        504,
        204,
        902,
        605,
        872,
        51,
        539,
        822,
        387,
        632,
        606,
        256,
        744,
        93,
        762,
        790,
        446,
        714,
        548,
        621,
        987,
        317,
        161,
        860,
        365,
        663,
        312,
        793,
        512,
        416,
        887,
        792,
        479,
        283,
        338,
        771,
        989,
        612,
        352,
        898,
        523,
        426,
        615,
        0,
        564,
        661,
        938,
        899,
        174,
        789,
        212,
        142,
        804,
        696,
        575,
        906,
        819,
        565,
        32,
        292,
        369,
        585,
        435,
        543,
        749,
        917,
        922,
        54,
        122,
        211,
        693,
        965,
        497,
        35,
        850,
        145,
        624,
        7,
        525,
        806,
        10,
        111,
        290,
        636,
        552,
        95,
        349,
        916,
        540,
        360,
        394,
        766,
        986,
        432,
        198,
        177,
        456,
        359,
        341,
        199,
        813,
        34,
        128,
        573,
        587,
        296,
        517,
        236,
        995,
        163,
        356,
        134,
        428,
        669,
        309,
        165,
        592,
        99,
        187,
        155,
        411,
        467,
        856,
        58,
        722,
        460,
        465,
        80,
        562,
        469,
        998,
        890,
        118,
        761,
        765,
        683,
        894,
        566,
        948,
        351,
        599
    ],
    "Global Optimum": 0,
    "Algorithm": "Genetic algorithm",
    "Parameters": {
        "population": 30,
        "offspring": 30,
        "mutation probability": 0.001,
        "crossover probability": 0.9
    },
    "Fitness": 1317387,
    "Solution": [
        362,
        880,
        934,
        848,
        774,
        705,
        56,
        500,
        87,
        277,
        23,
        1,
        770,
        156,
        126,
        690,
        985,
        841,
        679,
        102,
        201,
        436,
        518,
        434,
        803,
        725,
        867,
        388,
        546,
        481,
        400,
        484,
        48,
        196,
        598,
        153,
        422,
        830,
        375,
        597,
        734,
        224,
        303,
        870,
        547,
        699,
        464,
        473,
        728,
        367,
        600,
        73,
        631,
        295,
        862,
        230,
        244,
        843,
        470,
        74,
        780,
        945,
        742,
        574,
        483,
        672,
        314,
        689,
        491,
        535,
        695,
        36,
        389,
        634,
        538,
        318,
        415,
        59,
        327,
        45,
        178,
        343,
        206,
        248,
        904,
        772,
        72,
        106,
        664,
        879,
        855,
        281,
        589,
        775,
        875,
        640,
        577,
        638,
        758,
        21,
        931,
        919,
        183,
        704,
        441,
        270,
        644,
        276,
        667,
        268,
        797,
        354,
        914,
        322,
        488,
        279,
        953,
        77,
        764,
        228,
        529,
        928,
        342,
        519,
        677,
        391,
        2,
        150,
        129,
        874,
        374,
        944,
        147,
        30,
        109,
        951,
        229,
        284,
        485,
        961,
        842,
        779,
        845,
        407,
        794,
        900,
        884,
        626,
        71,
        253,
        515,
        112,
        514,
        933,
        482,
        594,
        590,
        557,
        756,
        839,
        568,
        824,
        716,
        635,
        988,
        419,
        528,
        215,
        853,
        509,
        536,
        980,
        384,
        729,
        750,
        993,
        506,
        974,
        601,
        736,
        108,
        492,
        70,
        503,
        494,
        901,
        891,
        325,
        151,
        190,
        627,
        408,
        468,
        941,
        801,
        404,
        16,
        767,
        480,
        864,
        222,
        825,
        799,
        698,
        288,
        336,
        888,
        595,
        451,
        584,
        662,
        531,
        911,
        708,
        55,
        501,
        439,
        727,
        254,
        958,
        782,
        371,
        19,
        942,
        259,
        495,
        732,
        671,
        937,
        703,
        651,
        138,
        69,
        193,
        267,
        807,
        305,
        852,
        532,
        811,
        43,
        370,
        752,
        721,
        302,
        642,
        866,
        997,
        157,
        110,
        271,
        210,
        520,
        748,
        970,
        785,
        649,
        26,
        682,
        149,
        124,
        420,
        393,
        990,
        275,
        298,
        337,
        431,
        788,
        471,
        893,
        619,
        847,
        936,
        946,
        745,
        189,
        840,
        332,
        88,
        992,
        373,
        647,
        733,
        307,
        123,
        114,
        453,
        868,
        641,
        41,
        152,
        159,
        476,
        180,
        777,
        908,
        392,
        625,
        620,
        324,
        120,
        674,
        753,
        100,
        718,
        892,
        13,
        769,
        857,
        735,
        269,
        243,
        410,
        956,
        280,
        382,
        18,
        66,
        344,
        213,
        645,
        306,
        164,
        223,
        991,
        385,
        418,
        710,
        877,
        316,
        299,
        401,
        265,
        264,
        984,
        304,
        82,
        457,
        555,
        115,
        924,
        678,
        511,
        578,
        854,
        427,
        837,
        798,
        810,
        246,
        421,
        219,
        452,
        646,
        76,
        496,
        200,
        550,
        831,
        618,
        38,
        809,
        943,
        170,
        214,
        524,
        143,
        137,
        278,
        176,
        730,
        226,
        172,
        559,
        527,
        297,
        46,
        498,
        818,
        379,
        896,
        94,
        251,
        90,
        558,
        795,
        192,
        526,
        967,
        508,
        930,
        711,
        591,
        720,
        160,
        442,
        27,
        449,
        144,
        688,
        438,
        315,
        194,
        882,
        694,
        240,
        656,
        516,
        675,
        5,
        395,
        971,
        653,
        706,
        925,
        918,
        954,
        972,
        166,
        231,
        323,
        162,
        746,
        829,
        386,
        975,
        381,
        776,
        28,
        368,
        61,
        175,
        757,
        759,
        443,
        380,
        897,
        741,
        186,
        83,
        116,
        334,
        966,
        643,
        103,
        586,
        346,
        876,
        628,
        673,
        412,
        225,
        567,
        648,
        113,
        105,
        154,
        692,
        834,
        62,
        563,
        827,
        786,
        68,
        851,
        286,
        957,
        238,
        42,
        185,
        533,
        139,
        561,
        319,
        218,
        402,
        773,
        581,
        84,
        787,
        812,
        723,
        724,
        9,
        363,
        996,
        461,
        65,
        869,
        377,
        490,
        22,
        629,
        493,
        655,
        768,
        311,
        489,
        182,
        838,
        534,
        220,
        861,
        12,
        450,
        844,
        340,
        659,
        763,
        326,
        203,
        130,
        466,
        754,
        148,
        433,
        8,
        424,
        778,
        513,
        234,
        202,
        666,
        623,
        545,
        50,
        878,
        743,
        458,
        828,
        37,
        551,
        613,
        261,
        633,
        168,
        717,
        950,
        47,
        510,
        132,
        81,
        947,
        127,
        287,
        863,
        858,
        274,
        291,
        607,
        447,
        700,
        378,
        121,
        131,
        873,
        171,
        981,
        136,
        588,
        399,
        658,
        835,
        542,
        40,
        437,
        609,
        596,
        350,
        571,
        691,
        63,
        398,
        217,
        117,
        949,
        216,
        455,
        817,
        784,
        308,
        549,
        614,
        335,
        474,
        86,
        959,
        472,
        98,
        570,
        241,
        952,
        425,
        731,
        697,
        935,
        833,
        796,
        245,
        52,
        751,
        982,
        195,
        355,
        89,
        738,
        345,
        208,
        907,
        883,
        554,
        173,
        639,
        104,
        889,
        960,
        681,
        414,
        239,
        403,
        713,
        781,
        330,
        905,
        376,
        802,
        429,
        702,
        665,
        475,
        709,
        347,
        328,
        477,
        522,
        530,
        556,
        668,
        364,
        969,
        25,
        250,
        233,
        740,
        20,
        712,
        301,
        181,
        912,
        505,
        686,
        881,
        611,
        221,
        832,
        39,
        849,
        260,
        448,
        29,
        33,
        423,
        979,
        630,
        610,
        978,
        582,
        921,
        184,
        940,
        282,
        141,
        560,
        964,
        235,
        915,
        537,
        353,
        209,
        169,
        329,
        107,
        604,
        486,
        310,
        885,
        657,
        820,
        285,
        616,
        191,
        197,
        715,
        257,
        397,
        406,
        800,
        572,
        79,
        24,
        440,
        289,
        258,
        871,
        300,
        167,
        91,
        293,
        502,
        454,
        739,
        846,
        85,
        417,
        333,
        726,
        252,
        791,
        459,
        249,
        263,
        64,
        821,
        783,
        617,
        273,
        676,
        507,
        637,
        719,
        140,
        579,
        75,
        913,
        53,
        372,
        478,
        15,
        96,
        31,
        923,
        660,
        521,
        255,
        188,
        685,
        11,
        3,
        119,
        608,
        179,
        955,
        939,
        390,
        67,
        348,
        44,
        313,
        553,
        262,
        701,
        133,
        652,
        266,
        444,
        205,
        983,
        487,
        687,
        926,
        927,
        684,
        247,
        976,
        541,
        836,
        4,
        57,
        603,
        865,
        737,
        361,
        396,
        814,
        462,
        580,
        14,
        654,
        747,
        544,
        321,
        909,
        125,
        383,
        413,
        78,
        808,
        320,
        670,
        999,
        294,
        707,
        823,
        358,
        895,
        237,
        622,
        910,
        593,
        409,
        6,
        92,
        886,
        973,
        583,
        826,
        816,
        97,
        135,
        146,
        903,
        815,
        339,
        755,
        445,
        227,
        357,
        932,
        963,
        569,
        929,
        405,
        430,
        463,
        366,
        680,
        805,
        331,
        760,
        602,
        232,
        962,
        499,
        977,
        994,
        968,
        859,
        242,
        158,
        49,
        101,
        272,
        60,
        650,
        207,
        920,
        576,
        17,
        504,
        204,
        902,
        605,
        872,
        51,
        539,
        822,
        387,
        632,
        606,
        256,
        744,
        93,
        762,
        790,
        446,
        714,
        548,
        621,
        987,
        317,
        161,
        860,
        365,
        663,
        312,
        793,
        512,
        416,
        887,
        792,
        479,
        283,
        338,
        771,
        989,
        612,
        352,
        898,
        523,
        426,
        615,
        0,
        564,
        661,
        938,
        899,
        174,
        789,
        212,
        142,
        804,
        696,
        575,
        906,
        819,
        565,
        32,
        292,
        369,
        585,
        435,
        543,
        749,
        917,
        922,
        54,
        122,
        211,
        693,
        965,
        497,
        35,
        850,
        145,
        624,
        7,
        525,
        806,
        10,
        111,
        290,
        636,
        552,
        95,
        349,
        916,
        540,
        360,
        394,
        766,
        986,
        432,
        198,
        177,
        456,
        359,
        341,
        199,
        813,
        34,
        128,
        573,
        587,
        296,
        517,
        236,
        995,
        163,
        356,
        134,
        428,
        669,
        309,
        165,
        592,
        99,
        187,
        155,
        411,
        467,
        856,
        58,
        722,
        460,
        465,
        80,
        562,
        469,
        998,
        890,
        118,
        761,
        765,
        683,
        894,
        566,
        948,
        351,
        599
    ],
    "Nb of functions evaluations": 200010,
    "Computational time in seconds": 3026.6468663215637,
    "Stopping criterion in evaluations": 200000
}